n = 100;
rows = 280;
supports = [|
  {1},{1},
 |{1},11..91,
 |{2},{2},
 |{2},12..92,
 |{3},{3},
 |{3},13..93,
 |{4},{4},
 |{4},14..94,
 |{5},{5},
 |{5},15..95,
 |{6},{6},
 |{6},16..96,
 |{7},{7},
 |{7},17..97,
 |{8},{8},
 |{8},18..98,
 |{9},{9},
 |{9},19..99,
 |{10},{10},
 |{10},20..100,
 |{11},{11},
 |{11},{1},
 |{11},21..100,
 |{12},{12},
 |{12},1..2,
 |{12},22..100,
 |{13},{13},
 |{13},1..3,
 |{13},23..100,
 |{14},{14},
 |{14},1..4,
 |{14},24..100,
 |{15},{15},
 |{15},1..5,
 |{15},25..100,
 |{16},{16},
 |{16},1..6,
 |{16},26..100,
 |{17},{17},
 |{17},1..7,
 |{17},27..100,
 |{18},{18},
 |{18},1..8,
 |{18},28..100,
 |{19},{19},
 |{19},1..9,
 |{19},29..100,
 |{20},{20},
 |{20},1..10,
 |{20},30..100,
 |{21},{21},
 |{21},1..11,
 |{21},31..100,
 |{22},{22},
 |{22},1..12,
 |{22},32..100,
 |{23},{23},
 |{23},1..13,
 |{23},33..100,
 |{24},{24},
 |{24},1..14,
 |{24},34..100,
 |{25},{25},
 |{25},1..15,
 |{25},35..100,
 |{26},{26},
 |{26},1..16,
 |{26},36..100,
 |{27},{27},
 |{27},1..17,
 |{27},37..100,
 |{28},{28},
 |{28},1..18,
 |{28},38..100,
 |{29},{29},
 |{29},1..19,
 |{29},39..100,
 |{30},{30},
 |{30},1..20,
 |{30},40..100,
 |{31},{31},
 |{31},1..21,
 |{31},41..100,
 |{32},{32},
 |{32},1..22,
 |{32},42..100,
 |{33},{33},
 |{33},1..23,
 |{33},43..100,
 |{34},{34},
 |{34},1..24,
 |{34},44..100,
 |{35},{35},
 |{35},1..25,
 |{35},45..100,
 |{36},{36},
 |{36},1..26,
 |{36},46..100,
 |{37},{37},
 |{37},1..27,
 |{37},47..100,
 |{38},{38},
 |{38},1..28,
 |{38},48..100,
 |{39},{39},
 |{39},1..29,
 |{39},49..100,
 |{40},{40},
 |{40},1..30,
 |{40},50..100,
 |{41},{41},
 |{41},1..31,
 |{41},51..100,
 |{42},{42},
 |{42},1..32,
 |{42},52..100,
 |{43},{43},
 |{43},1..33,
 |{43},53..100,
 |{44},{44},
 |{44},1..34,
 |{44},54..100,
 |{45},{45},
 |{45},1..35,
 |{45},55..100,
 |{46},{46},
 |{46},1..36,
 |{46},56..100,
 |{47},{47},
 |{47},1..37,
 |{47},57..100,
 |{48},{48},
 |{48},1..38,
 |{48},58..100,
 |{49},{49},
 |{49},1..39,
 |{49},59..100,
 |{50},{50},
 |{50},1..40,
 |{50},60..100,
 |{51},{51},
 |{51},1..41,
 |{51},61..100,
 |{52},{52},
 |{52},1..42,
 |{52},62..100,
 |{53},{53},
 |{53},1..43,
 |{53},63..100,
 |{54},{54},
 |{54},1..44,
 |{54},64..100,
 |{55},{55},
 |{55},1..45,
 |{55},65..100,
 |{56},{56},
 |{56},1..46,
 |{56},66..100,
 |{57},{57},
 |{57},1..47,
 |{57},67..100,
 |{58},{58},
 |{58},1..48,
 |{58},68..100,
 |{59},{59},
 |{59},1..49,
 |{59},69..100,
 |{60},{60},
 |{60},1..50,
 |{60},70..100,
 |{61},{61},
 |{61},1..51,
 |{61},71..100,
 |{62},{62},
 |{62},1..52,
 |{62},72..100,
 |{63},{63},
 |{63},1..53,
 |{63},73..100,
 |{64},{64},
 |{64},1..54,
 |{64},74..100,
 |{65},{65},
 |{65},1..55,
 |{65},75..100,
 |{66},{66},
 |{66},1..56,
 |{66},76..100,
 |{67},{67},
 |{67},1..57,
 |{67},77..100,
 |{68},{68},
 |{68},1..58,
 |{68},78..100,
 |{69},{69},
 |{69},1..59,
 |{69},79..100,
 |{70},{70},
 |{70},1..60,
 |{70},80..100,
 |{71},{71},
 |{71},1..61,
 |{71},81..100,
 |{72},{72},
 |{72},1..62,
 |{72},82..100,
 |{73},{73},
 |{73},1..63,
 |{73},83..100,
 |{74},{74},
 |{74},1..64,
 |{74},84..100,
 |{75},{75},
 |{75},1..65,
 |{75},85..100,
 |{76},{76},
 |{76},1..66,
 |{76},86..100,
 |{77},{77},
 |{77},1..67,
 |{77},87..100,
 |{78},{78},
 |{78},1..68,
 |{78},88..100,
 |{79},{79},
 |{79},1..69,
 |{79},89..100,
 |{80},{80},
 |{80},1..70,
 |{80},90..100,
 |{81},{81},
 |{81},1..71,
 |{81},91..100,
 |{82},{82},
 |{82},1..72,
 |{82},92..100,
 |{83},{83},
 |{83},1..73,
 |{83},93..100,
 |{84},{84},
 |{84},1..74,
 |{84},94..100,
 |{85},{85},
 |{85},1..75,
 |{85},95..100,
 |{86},{86},
 |{86},1..76,
 |{86},96..100,
 |{87},{87},
 |{87},1..77,
 |{87},97..100,
 |{88},{88},
 |{88},1..78,
 |{88},98..100,
 |{89},{89},
 |{89},1..79,
 |{89},99..100,
 |{90},{90},
 |{90},1..80,
 |{90},{100},
 |{91},{91},
 |{91},1..81,
 |{92},{92},
 |{92},2..82,
 |{93},{93},
 |{93},3..83,
 |{94},{94},
 |{94},4..84,
 |{95},{95},
 |{95},5..85,
 |{96},{96},
 |{96},6..86,
 |{97},{97},
 |{97},7..87,
 |{98},{98},
 |{98},8..88,
 |{99},{99},
 |{99},9..89,
 |{100},{100},
 |{100},10..90 |];

t = 247;

indexes = [|
    0,6,
  | 0,11,
  | 0,22,
  | 0,53,
  | 0,76,
  | 0,94,
  | 1,18,
  | 1,19,
  | 1,27,
  | 1,32,
  | 1,48,
  | 2,28,
  | 2,36,
  | 2,46,
  | 2,74,
  | 2,94,
  | 3,14,
  | 3,17,
  | 3,55,
  | 3,61,
  | 3,75,
  | 4,46,
  | 4,54,
  | 4,66,
  | 4,74,
  | 5,9,
  | 5,39,
  | 5,50,
  | 5,68,
  | 5,72,
  | 6,29,
  | 6,65,
  | 6,82,
  | 6,86,
  | 6,92,
  | 7,14,
  | 7,29,
  | 7,30,
  | 7,69,
  | 7,75,
  | 7,91,
  | 8,64,
  | 8,95,
  | 9,12,
  | 9,16,
  | 9,47,
  | 9,72,
  | 9,98,
  | 10,13,
  | 10,26,
  | 10,56,
  | 10,58,
  | 10,90,
  | 11,24,
  | 11,37,
  | 11,53,
  | 11,83,
  | 14,30,
  | 14,51,
  | 14,83,
  | 15,29,
  | 15,65,
  | 15,69,
  | 15,86,
  | 15,92,
  | 15,94,
  | 16,56,
  | 17,25,
  | 17,34,
  | 17,40,
  | 17,55,
  | 17,73,
  | 18,19,
  | 18,25,
  | 18,31,
  | 18,73,
  | 18,88,
  | 19,32,
  | 19,79,
  | 20,74,
  | 21,82,
  | 21,86,
  | 21,89,
  | 21,92,
  | 22,28,
  | 22,37,
  | 22,46,
  | 22,62,
  | 22,82,
  | 23,27,
  | 23,31,
  | 23,79,
  | 23,86,
  | 24,28,
  | 24,36,
  | 24,64,
  | 25,32,
  | 25,69,
  | 25,75,
  | 25,87,
  | 26,47,
  | 26,58,
  | 26,63,
  | 26,98,
  | 27,31,
  | 27,79,
  | 27,89,
  | 28,53,
  | 28,64,
  | 28,95,
  | 29,37,
  | 29,76,
  | 29,83,
  | 30,51,
  | 30,65,
  | 31,69,
  | 31,91,
  | 31,92,
  | 32,34,
  | 32,70,
  | 32,73,
  | 33,39,
  | 33,47,
  | 33,71,
  | 33,72,
  | 33,80,
  | 33,84,
  | 34,38,
  | 34,43,
  | 34,59,
  | 34,88,
  | 35,46,
  | 35,62,
  | 35,82,
  | 35,99,
  | 36,37,
  | 36,52,
  | 36,64,
  | 36,95,
  | 37,53,
  | 37,94,
  | 38,40,
  | 38,45,
  | 38,61,
  | 38,75,
  | 38,87,
  | 39,49,
  | 39,80,
  | 39,96,
  | 40,59,
  | 40,61,
  | 41,44,
  | 41,49,
  | 41,85,
  | 41,88,
  | 41,96,
  | 41,97,
  | 42,56,
  | 43,44,
  | 43,48,
  | 43,70,
  | 43,87,
  | 43,97,
  | 44,60,
  | 44,96,
  | 45,63,
  | 45,77,
  | 45,85,
  | 45,93,
  | 45,97,
  | 46,54,
  | 46,95,
  | 47,56,
  | 47,57,
  | 47,68,
  | 48,70,
  | 48,88,
  | 48,96,
  | 49,68,
  | 49,71,
  | 49,80,
  | 49,84,
  | 51,55,
  | 51,69,
  | 51,73,
  | 51,91,
  | 54,74,
  | 54,99,
  | 55,75,
  | 56,58,
  | 56,98,
  | 57,58,
  | 57,71,
  | 57,78,
  | 57,84,
  | 57,90,
  | 59,61,
  | 59,77,
  | 59,87,
  | 59,97,
  | 60,71,
  | 60,80,
  | 60,85,
  | 60,96,
  | 60,97,
  | 61,93,
  | 62,74,
  | 62,92,
  | 62,94,
  | 62,99,
  | 63,71,
  | 63,78,
  | 63,84,
  | 63,90,
  | 65,76,
  | 65,83,
  | 65,91,
  | 66,95,
  | 67,98,
  | 68,72,
  | 68,98,
  | 69,79,
  | 70,88,
  | 71,81,
  | 73,75,
  | 73,79,
  | 74,95,
  | 76,83,
  | 77,81,
  | 77,93,
  | 78,81,
  | 78,90,
  | 79,91,
  | 81,85,
  | 81,93,
  | 81,97,
  | 82,94,
  | 82,99,
  | 84,85,
  | 84,98,
  | 85,87,
  | 86,89,
  | 86,91,
  | 87,88,
  | 89,92,
  | 89,99,
  | 90,93 |];

